<?xml version = "1.0" standalone="yes"?>
<!-- This file has been generated by DOcplex version 2.23.222  -->
<CPLEXSolution version="1.0">
 <header
   problemName="CVRP"
   objectiveValue="15077.6"
  />
 <variables>
  <variable name="x_0_1" index="0" value="1.00000"/>
  <variable name="x_0_2" index="1" value="1.00000"/>
  <variable name="x_0_3" index="2" value="1.00000"/>
  <variable name="x_0_5" index="4" value="1.00000"/>
  <variable name="x_0_7" index="6" value="1.00000"/>
  <variable name="x_0_9" index="8" value="1.00000"/>
  <variable name="x_0_11" index="10" value="1.00000"/>
  <variable name="x_0_13" index="12" value="1.00000"/>
  <variable name="x_0_14" index="13" value="1.00000"/>
  <variable name="x_0_16" index="15" value="1.00000"/>
  <variable name="x_0_17" index="16" value="1.00000"/>
  <variable name="x_0_18" index="17" value="1.00000"/>
  <variable name="x_0_19" index="18" value="1.00000"/>
  <variable name="x_0_20" index="19" value="1.00000"/>
  <variable name="x_0_22" index="21" value="1.00000"/>
  <variable name="x_0_25" index="24" value="1.00000"/>
  <variable name="x_0_27" index="26" value="1.00000"/>
  <variable name="x_0_30" index="29" value="1.00000"/>
  <variable name="x_1_0" index="30" value="1.00000"/>
  <variable name="x_2_26" index="85" value="1.00000"/>
  <variable name="x_3_0" index="90" value="1.00000"/>
  <variable name="x_4_24" index="143" value="1.00000"/>
  <variable name="x_5_0" index="150" value="1.00000"/>
  <variable name="x_6_0" index="180" value="1.00000"/>
  <variable name="x_7_0" index="210" value="1.00000"/>
  <variable name="x_8_6" index="246" value="1.00000"/>
  <variable name="x_9_10" index="279" value="1.00000"/>
  <variable name="x_10_29" index="328" value="1.00000"/>
  <variable name="x_11_0" index="330" value="1.00000"/>
  <variable name="x_12_15" index="374" value="1.00000"/>
  <variable name="x_13_8" index="398" value="1.00000"/>
  <variable name="x_14_0" index="420" value="1.00000"/>
  <variable name="x_15_0" index="450" value="1.00000"/>
  <variable name="x_16_0" index="480" value="1.00000"/>
  <variable name="x_17_23" index="532" value="1.00000"/>
  <variable name="x_18_0" index="540" value="1.00000"/>
  <variable name="x_19_4" index="574" value="1.00000"/>
  <variable name="x_20_28" index="627" value="1.00000"/>
  <variable name="x_21_0" index="630" value="1.00000"/>
  <variable name="x_22_12" index="672" value="1.00000"/>
  <variable name="x_23_0" index="690" value="1.00000"/>
  <variable name="x_24_0" index="720" value="1.00000"/>
  <variable name="x_25_0" index="750" value="1.00000"/>
  <variable name="x_26_0" index="780" value="1.00000"/>
  <variable name="x_27_0" index="810" value="1.00000"/>
  <variable name="x_28_0" index="840" value="1.00000"/>
  <variable name="x_29_0" index="870" value="1.00000"/>
  <variable name="x_30_21" index="921" value="1.00000"/>
  <variable name="u_1" index="930" value="35.00000"/>
  <variable name="u_2" index="931" value="26.00000"/>
  <variable name="u_3" index="932" value="29.00000"/>
  <variable name="u_4" index="933" value="16.00000"/>
  <variable name="u_5" index="934" value="31.00000"/>
  <variable name="u_6" index="935" value="36.00000"/>
  <variable name="u_7" index="936" value="32.00000"/>
  <variable name="u_8" index="937" value="28.00000"/>
  <variable name="u_9" index="938" value="25.00000"/>
  <variable name="u_10" index="939" value="29.00000"/>
  <variable name="u_11" index="940" value="34.00000"/>
  <variable name="u_12" index="941" value="31.00000"/>
  <variable name="u_13" index="942" value="17.00000"/>
  <variable name="u_14" index="943" value="36.00000"/>
  <variable name="u_15" index="944" value="35.00000"/>
  <variable name="u_16" index="945" value="34.00000"/>
  <variable name="u_17" index="946" value="22.00000"/>
  <variable name="u_18" index="947" value="34.00000"/>
  <variable name="u_19" index="948" value="10.00000"/>
  <variable name="u_20" index="949" value="22.00000"/>
  <variable name="u_21" index="950" value="35.00000"/>
  <variable name="u_22" index="951" value="22.00000"/>
  <variable name="u_23" index="952" value="36.00000"/>
  <variable name="u_24" index="953" value="36.00000"/>
  <variable name="u_25" index="954" value="32.00000"/>
  <variable name="u_26" index="955" value="36.00000"/>
  <variable name="u_27" index="956" value="21.00000"/>
  <variable name="u_28" index="957" value="33.00000"/>
  <variable name="u_29" index="958" value="36.00000"/>
  <variable name="u_30" index="959" value="16.00000"/>
 </variables>
</CPLEXSolution>
